
===== New CPLEX run =====
Instance: /home/yorig/tuner/mpils-tests/instances/miplib/easy/lotsize.mps
Config: /scratch/yorig/mpils-results-grid-ticks-10000/easy/16proc/seed-9/4_lotsize_seed-9_20260425_202405/iterated_local_search/run_3_worker_10/ils_config_9727541275796741186.prm
========================

Selected objective sense:  MINIMIZE
Selected objective  name:  R1921
Selected RHS        name:  B
Selected bound      name:  BOUND
Version identifier: 22.1.2.0 | 2024-11-26 | 0edbb82fd
CPXPARAM_Threads                                 8
CPXPARAM_Parallel                                1
CPXPARAM_MIP_Strategy_SubAlgorithm               2
CPXPARAM_MIP_Strategy_VariableSelect             3
CPXPARAM_MIP_Cuts_FlowCovers                     1
CPXPARAM_MIP_Cuts_Implied                        2
CPXPARAM_MIP_Cuts_GUBCovers                      -1
CPXPARAM_MIP_Limits_GomoryCand                   400
CPXPARAM_MIP_Cuts_Gomory                         1
CPXPARAM_MIP_Cuts_PathCut                        -1
CPXPARAM_MIP_Cuts_MIRCut                         1
CPXPARAM_MIP_Cuts_Disjunctive                    -1
CPXPARAM_Emphasis_MIP                            4
CPXPARAM_DetTimeLimit                            10000
Tried aggregator 1 time.
MIP Presolve eliminated 595 rows and 0 columns.
MIP Presolve added 1190 rows and 0 columns.
MIP Presolve modified 10 coefficients.
Reduced MIP has 2515 rows, 2985 columns, and 7755 nonzeros.
Reduced MIP has 1195 binaries, 0 generals, 0 SOSs, and 0 indicators.
Presolve time = 0.00 sec. (4.53 ticks)
Probing fixed 0 vars, tightened 5487 bounds.
Probing time = 0.01 sec. (18.38 ticks)
Tried aggregator 2 times.
Detecting symmetries...
MIP Presolve modified 1206 coefficients.
Aggregator did 10 substitutions.
Reduced MIP has 2505 rows, 2975 columns, and 7735 nonzeros.
Reduced MIP has 1195 binaries, 0 generals, 0 SOSs, and 0 indicators.
Presolve time = 0.00 sec. (6.66 ticks)
Probing fixed 0 vars, tightened 2401 bounds.
Probing time = 0.00 sec. (6.41 ticks)
Clique table members: 190.
MIP emphasis: hidden feasible solutions.
MIP search method: dynamic search.
Parallel mode: deterministic, using up to 8 threads.
Root relaxation solution time = 0.01 sec. (9.71 ticks)

        Nodes                                         Cuts/
   Node  Left     Objective  IInf  Best Integer    Best Bound    ItCnt     Gap

      0     0   348385.3466   472                 348385.3466      882         
      0     0   497593.6944   617                   Cuts: 726     1927         
      0     0   710998.1031   620                   Cuts: 726     2890         
*     0+    0                       1.01740e+07   710998.1031            93.01%
*     0+    0                      7973370.0000   710998.1031            91.08%
      0     0   896209.7418   655  7973370.0000     Cuts: 726     3780   88.76%
      0     0  1005285.7946   608  7973370.0000     Cuts: 726     4491   87.39%
      0     0  1066281.2694   663  7973370.0000     Cuts: 726     5131   86.63%
Detecting symmetries...
      0     0  1119191.9627   665  7973370.0000     Cuts: 717     5732   85.96%
      0     0  1157590.0486   657  7973370.0000     Cuts: 576     6238   85.48%
*     0+    0                      1973822.0000  1157590.0486            41.35%
      0     0  1182606.2098   681  1973822.0000     Cuts: 534     6748   40.09%
      0     0  1224931.2315   688  1973822.0000     Cuts: 609     7356   37.94%
      0     0  1245740.0152   742  1973822.0000     Cuts: 545     7813   36.89%
      0     0  1255900.1480   732  1973822.0000     Cuts: 377     8166   36.37%
      0     0  1264373.1073   777  1973822.0000     Cuts: 461     8473   35.94%
      0     0  1271378.4012   762  1973822.0000     Cuts: 275     8756   35.59%
      0     0  1277728.0422   772  1973822.0000     Cuts: 283     9038   35.27%
      0     0  1282961.6491   747  1973822.0000     Cuts: 253     9283   35.00%
      0     0  1286959.0313   754  1973822.0000     Cuts: 287     9522   34.80%
      0     0  1290442.0780   787  1973822.0000     Cuts: 261     9789   34.62%
      0     0  1292671.7303   793  1973822.0000     Cuts: 172     9980   34.51%
      0     0  1295038.2977   814  1973822.0000     Cuts: 198    10195   34.39%
      0     0  1296845.9952   788  1973822.0000     Cuts: 205    10397   34.30%
      0     0  1298449.8474   805  1973822.0000     Cuts: 178    10559   34.22%
      0     0  1300244.4963   781  1973822.0000     Cuts: 143    10747   34.13%
      0     0  1301232.8261   804  1973822.0000     Cuts: 231    10889   34.08%
      0     0  1302559.3813   805  1973822.0000     Cuts: 147    10991   34.01%
      0     0  1303295.8877   803  1973822.0000     Cuts: 103    11088   33.97%
      0     0  1303795.3695   817  1973822.0000     Cuts: 144    11180   33.95%
      0     0  1304297.7136   830  1973822.0000     Cuts: 116    11254   33.92%
      0     0  1305017.2177   838  1973822.0000     Cuts: 110    11337   33.88%
      0     0  1305465.3376   836  1973822.0000      Cuts: 93    11407   33.86%
      0     0  1305591.4703   834  1973822.0000      Cuts: 57    11458   33.85%
      0     0  1305734.0244   837  1973822.0000      Cuts: 71    11516   33.85%
*     0+    0                      1921562.0000  1305734.0244            32.05%
Detecting symmetries...
      0     2  1305734.0244   837  1921562.0000  1305734.0244    11516   32.05%
Elapsed time = 5.76 sec. (9083.94 ticks, tree = 0.02 MB, solutions = 4)
      2     4  1306562.3641   836  1921562.0000  1307420.4237    11544   31.96%
      5     6  1315418.8626   815  1921562.0000  1307420.4237    11677   31.96%

Cover cuts applied:  12
Implied bound cuts applied:  21
Flow cuts applied:  461
Mixed integer rounding cuts applied:  1127
Multi commodity flow cuts applied:  48
Gomory fractional cuts applied:  7

Root node processing (before b&c):
  Real time             =    5.65 sec. (8865.99 ticks)
Parallel b&c, 8 threads:
  Real time             =    0.60 sec. (1139.77 ticks)
  Sync time (average)   =    0.34 sec.
  Wait time (average)   =    0.00 sec.
                          ------------
Total (root+branch&cut) =    6.25 sec. (10005.76 ticks)
Gap: 31.95%
Upper bound: 1.92156e+06
Lower bound: 1.30771e+06
End of CPLEX run. Time: 6.24996 seconds

===== New CPLEX run =====
Instance: /home/yorig/tuner/mpils-tests/instances/miplib/easy/lotsize.mps
Config: /scratch/yorig/mpils-results-grid-ticks-10000/easy/16proc/seed-9/4_lotsize_seed-9_20260425_202405/iterated_local_search/run_3_worker_10/ils_config_16284949961201322804.prm
========================

Selected objective sense:  MINIMIZE
Selected objective  name:  R1921
Selected RHS        name:  B
Selected bound      name:  BOUND
Version identifier: 22.1.2.0 | 2024-11-26 | 0edbb82fd
CPXPARAM_Threads                                 8
CPXPARAM_Parallel                                1
CPXPARAM_MIP_Strategy_SubAlgorithm               2
CPXPARAM_MIP_Strategy_VariableSelect             3
CPXPARAM_MIP_Cuts_FlowCovers                     1
CPXPARAM_MIP_Cuts_Implied                        2
CPXPARAM_MIP_Cuts_GUBCovers                      -1
CPXPARAM_MIP_Limits_GomoryCand                   400
CPXPARAM_MIP_Cuts_Gomory                         1
CPXPARAM_MIP_Cuts_PathCut                        -1
CPXPARAM_MIP_Cuts_MIRCut                         2
CPXPARAM_MIP_Cuts_Disjunctive                    -1
CPXPARAM_Emphasis_MIP                            4
CPXPARAM_DetTimeLimit                            10000
Tried aggregator 1 time.
MIP Presolve eliminated 595 rows and 0 columns.
MIP Presolve added 1190 rows and 0 columns.
MIP Presolve modified 10 coefficients.
Reduced MIP has 2515 rows, 2985 columns, and 7755 nonzeros.
Reduced MIP has 1195 binaries, 0 generals, 0 SOSs, and 0 indicators.
Presolve time = 0.00 sec. (4.53 ticks)
Probing fixed 0 vars, tightened 5487 bounds.
Probing time = 0.01 sec. (18.38 ticks)
Tried aggregator 2 times.
Detecting symmetries...
MIP Presolve modified 1206 coefficients.
Aggregator did 10 substitutions.
Reduced MIP has 2505 rows, 2975 columns, and 7735 nonzeros.
Reduced MIP has 1195 binaries, 0 generals, 0 SOSs, and 0 indicators.
Presolve time = 0.00 sec. (6.66 ticks)
Probing fixed 0 vars, tightened 2401 bounds.
Probing time = 0.00 sec. (6.41 ticks)
Clique table members: 190.
MIP emphasis: hidden feasible solutions.
MIP search method: dynamic search.
Parallel mode: deterministic, using up to 8 threads.
Root relaxation solution time = 0.01 sec. (9.71 ticks)

        Nodes                                         Cuts/
   Node  Left     Objective  IInf  Best Integer    Best Bound    ItCnt     Gap

      0     0   348385.3466   472                 348385.3466      882         
      0     0   497593.6944   617                   Cuts: 726     1927         
      0     0   710998.1031   620                   Cuts: 726     2890         
*     0+    0                       1.01740e+07   710998.1031            93.01%
*     0+    0                      7973370.0000   710998.1031            91.08%
      0     0   896209.7418   655  7973370.0000     Cuts: 726     3780   88.76%
      0     0  1005285.7946   608  7973370.0000     Cuts: 726     4491   87.39%
      0     0  1066281.2694   663  7973370.0000     Cuts: 726     5131   86.63%
Detecting symmetries...
      0     0  1119191.9627   665  7973370.0000     Cuts: 717     5732   85.96%
      0     0  1157590.0486   657  7973370.0000     Cuts: 576     6238   85.48%
*     0+    0                      1973822.0000  1157590.0486            41.35%
      0     0  1182606.2098   681  1973822.0000     Cuts: 534     6748   40.09%
      0     0  1224931.2315   688  1973822.0000     Cuts: 609     7356   37.94%
      0     0  1245740.0152   742  1973822.0000     Cuts: 545     7813   36.89%
      0     0  1255900.1480   732  1973822.0000     Cuts: 377     8166   36.37%
      0     0  1264373.1073   777  1973822.0000     Cuts: 461     8473   35.94%
      0     0  1271378.4012   762  1973822.0000     Cuts: 275     8756   35.59%
      0     0  1277728.0422   772  1973822.0000     Cuts: 283     9038   35.27%
      0     0  1282961.6491   747  1973822.0000     Cuts: 253     9283   35.00%
      0     0  1286959.0313   754  1973822.0000     Cuts: 287     9522   34.80%
      0     0  1290442.0780   787  1973822.0000     Cuts: 261     9789   34.62%
      0     0  1292671.7303   793  1973822.0000     Cuts: 172     9980   34.51%
      0     0  1295038.2977   814  1973822.0000     Cuts: 198    10195   34.39%
      0     0  1296845.9952   788  1973822.0000     Cuts: 205    10397   34.30%
      0     0  1298449.8474   805  1973822.0000     Cuts: 178    10559   34.22%
      0     0  1300244.4963   781  1973822.0000     Cuts: 143    10747   34.13%
      0     0  1301232.8261   804  1973822.0000     Cuts: 231    10889   34.08%
      0     0  1302559.3813   805  1973822.0000     Cuts: 147    10991   34.01%
      0     0  1303295.8877   803  1973822.0000     Cuts: 103    11088   33.97%
      0     0  1303795.3695   817  1973822.0000     Cuts: 144    11180   33.95%
      0     0  1304297.7136   830  1973822.0000     Cuts: 116    11254   33.92%
      0     0  1305017.2177   838  1973822.0000     Cuts: 110    11337   33.88%
      0     0  1305465.3376   836  1973822.0000      Cuts: 93    11407   33.86%
      0     0  1305591.4703   834  1973822.0000      Cuts: 57    11458   33.85%
      0     0  1305734.0244   837  1973822.0000      Cuts: 71    11516   33.85%
*     0+    0                      1921562.0000  1305734.0244            32.05%
Detecting symmetries...
      0     2  1305734.0244   837  1921562.0000  1305734.0244    11516   32.05%
Elapsed time = 5.74 sec. (9083.94 ticks, tree = 0.02 MB, solutions = 4)
      2     4  1306562.3641   836  1921562.0000  1307420.4237    11544   31.96%
      5     6  1338352.9159   826  1921562.0000  1307420.4237    11823   31.96%

Cover cuts applied:  11
Implied bound cuts applied:  23
Flow cuts applied:  463
Mixed integer rounding cuts applied:  1149
Multi commodity flow cuts applied:  48
Gomory fractional cuts applied:  7

Root node processing (before b&c):
  Real time             =    5.63 sec. (8865.99 ticks)
Parallel b&c, 8 threads:
  Real time             =    0.58 sec. (1142.99 ticks)
  Sync time (average)   =    0.32 sec.
  Wait time (average)   =    0.00 sec.
                          ------------
Total (root+branch&cut) =    6.21 sec. (10008.98 ticks)
Gap: 31.95%
Upper bound: 1.92156e+06
Lower bound: 1.30771e+06
End of CPLEX run. Time: 6.21023 seconds

===== New CPLEX run =====
Instance: /home/yorig/tuner/mpils-tests/instances/miplib/easy/lotsize.mps
Config: /scratch/yorig/mpils-results-grid-ticks-10000/easy/16proc/seed-9/4_lotsize_seed-9_20260425_202405/iterated_local_search/run_3_worker_10/ils_config_17707134147509564329.prm
========================

Selected objective sense:  MINIMIZE
Selected objective  name:  R1921
Selected RHS        name:  B
Selected bound      name:  BOUND
Version identifier: 22.1.2.0 | 2024-11-26 | 0edbb82fd
CPXPARAM_Threads                                 8
CPXPARAM_Parallel                                1
CPXPARAM_MIP_Strategy_SubAlgorithm               2
CPXPARAM_MIP_Strategy_VariableSelect             1
CPXPARAM_MIP_Cuts_FlowCovers                     1
CPXPARAM_MIP_Cuts_Implied                        2
CPXPARAM_MIP_Cuts_GUBCovers                      -1
CPXPARAM_MIP_Limits_GomoryCand                   400
CPXPARAM_MIP_Cuts_Gomory                         1
CPXPARAM_MIP_Cuts_PathCut                        -1
CPXPARAM_MIP_Cuts_MIRCut                         1
CPXPARAM_MIP_Cuts_Disjunctive                    -1
CPXPARAM_Emphasis_MIP                            4
CPXPARAM_DetTimeLimit                            10000
Tried aggregator 1 time.
MIP Presolve eliminated 595 rows and 0 columns.
MIP Presolve added 1190 rows and 0 columns.
MIP Presolve modified 10 coefficients.
Reduced MIP has 2515 rows, 2985 columns, and 7755 nonzeros.
Reduced MIP has 1195 binaries, 0 generals, 0 SOSs, and 0 indicators.
Presolve time = 0.00 sec. (4.53 ticks)
Probing fixed 0 vars, tightened 5487 bounds.
Probing time = 0.01 sec. (18.38 ticks)
Tried aggregator 2 times.
Detecting symmetries...
MIP Presolve modified 1206 coefficients.
Aggregator did 10 substitutions.
Reduced MIP has 2505 rows, 2975 columns, and 7735 nonzeros.
Reduced MIP has 1195 binaries, 0 generals, 0 SOSs, and 0 indicators.
Presolve time = 0.00 sec. (6.66 ticks)
Probing fixed 0 vars, tightened 2401 bounds.
Probing time = 0.00 sec. (6.41 ticks)
Clique table members: 190.
MIP emphasis: hidden feasible solutions.
MIP search method: dynamic search.
Parallel mode: deterministic, using up to 8 threads.
Root relaxation solution time = 0.01 sec. (9.71 ticks)

        Nodes                                         Cuts/
   Node  Left     Objective  IInf  Best Integer    Best Bound    ItCnt     Gap

      0     0   348385.3466   472                 348385.3466      882         
      0     0   497593.6944   617                   Cuts: 726     1927         
      0     0   710998.1031   620                   Cuts: 726     2890         
*     0+    0                       1.01740e+07   710998.1031            93.01%
*     0+    0                      7973370.0000   710998.1031            91.08%
      0     0   896209.7418   655  7973370.0000     Cuts: 726     3780   88.76%
      0     0  1005285.7946   608  7973370.0000     Cuts: 726     4491   87.39%
      0     0  1066281.2694   663  7973370.0000     Cuts: 726     5131   86.63%
Detecting symmetries...
      0     0  1119191.9627   665  7973370.0000     Cuts: 717     5732   85.96%
*     0+    0                      2214406.0000  1119191.9627            49.46%
      0     0  1157590.0486   657  2214406.0000     Cuts: 576     6238   47.72%
*     0+    0                      1941716.0000  1157590.0486            40.38%
      0     0  1182835.7969   695  1941716.0000     Cuts: 592     6774   39.08%
      0     0  1225451.3847   705  1941716.0000     Cuts: 610     7426   36.89%
      0     0  1245205.1521   753  1941716.0000     Cuts: 568     7903   35.87%
      0     0  1255273.1659   758  1941716.0000     Cuts: 373     8253   35.35%
      0     0  1262931.4340   760  1941716.0000     Cuts: 379     8584   34.96%
      0     0  1271367.6118   775  1941716.0000     Cuts: 340     8850   34.52%
      0     0  1276429.4738   785  1941716.0000     Cuts: 287     9109   34.26%
      0     0  1282045.0664   803  1941716.0000     Cuts: 260     9323   33.97%
      0     0  1284442.9036   800  1941716.0000     Cuts: 218     9499   33.85%
      0     0  1287089.1351   786  1941716.0000     Cuts: 195     9677   33.71%
      0     0  1290535.2595   784  1941716.0000     Cuts: 176     9867   33.54%
      0     0  1292671.7257   811  1941716.0000     Cuts: 185    10048   33.43%
      0     0  1295094.9379   812  1941716.0000     Cuts: 211    10203   33.30%
      0     0  1296474.1199   823  1941716.0000     Cuts: 148    10321   33.23%
      0     0  1299081.7392   821  1941716.0000     Cuts: 116    10451   33.10%
      0     0  1300371.6207   828  1941716.0000     Cuts: 173    10591   33.03%
      0     0  1301299.2207   808  1941716.0000     Cuts: 113    10700   32.98%
      0     0  1302196.6561   830  1941716.0000     Cuts: 114    10799   32.94%
      0     0  1302895.9841   838  1941716.0000     Cuts: 137    10896   32.90%
      0     0  1303828.0963   843  1941716.0000     Cuts: 134    10997   32.85%
      0     0  1304805.9986   845  1941716.0000     Cuts: 102    11089   32.80%
      0     0  1305068.9527   836  1941716.0000      Cuts: 68    11137   32.79%
      0     0  1305299.2694   840  1941716.0000      Cuts: 59    11197   32.78%
*     0+    0                      1894709.0000  1305299.2694            31.11%
*     0+    0                      1889471.0000  1305299.2694            30.92%
Detecting symmetries...
      0     2  1305299.2694   840  1889471.0000  1305299.2694    11197   30.92%
Elapsed time = 5.58 sec. (8897.44 ticks, tree = 0.02 MB, solutions = 6)
     25     9  1308753.4196   805  1889471.0000  1305626.0068    11626   30.90%
     36    32  1322190.4750   782  1889471.0000  1305626.0068    14160   30.90%
     48    46  1322847.8440   759  1889471.0000  1307122.9886    19954   30.82%
     82    59  1325531.5216   772  1889471.0000  1307156.7124    25020   30.82%

Cover cuts applied:  11
Implied bound cuts applied:  21
Flow cuts applied:  500
Mixed integer rounding cuts applied:  1166
Multi commodity flow cuts applied:  48
Gomory fractional cuts applied:  7

Root node processing (before b&c):
  Real time             =    5.56 sec. (8889.93 ticks)
Parallel b&c, 8 threads:
  Real time             =    0.61 sec. (1113.82 ticks)
  Sync time (average)   =    0.06 sec.
  Wait time (average)   =    0.00 sec.
                          ------------
Total (root+branch&cut) =    6.17 sec. (10003.75 ticks)
Gap: 30.82%
Upper bound: 1.88947e+06
Lower bound: 1.30716e+06
End of CPLEX run. Time: 6.17165 seconds

===== New CPLEX run =====
Instance: /home/yorig/tuner/mpils-tests/instances/miplib/easy/lotsize.mps
Config: /scratch/yorig/mpils-results-grid-ticks-10000/easy/16proc/seed-9/4_lotsize_seed-9_20260425_202405/iterated_local_search/run_3_worker_10/ils_config_15125292467523219784.prm
========================

Selected objective sense:  MINIMIZE
Selected objective  name:  R1921
Selected RHS        name:  B
Selected bound      name:  BOUND
Version identifier: 22.1.2.0 | 2024-11-26 | 0edbb82fd
CPXPARAM_Threads                                 8
CPXPARAM_Parallel                                1
CPXPARAM_MIP_Strategy_SubAlgorithm               2
CPXPARAM_MIP_Strategy_VariableSelect             1
CPXPARAM_MIP_Cuts_Implied                        2
CPXPARAM_MIP_Cuts_GUBCovers                      -1
CPXPARAM_MIP_Limits_GomoryCand                   400
CPXPARAM_MIP_Cuts_Gomory                         1
CPXPARAM_MIP_Cuts_PathCut                        -1
CPXPARAM_MIP_Cuts_MIRCut                         1
CPXPARAM_MIP_Cuts_Disjunctive                    -1
CPXPARAM_Emphasis_MIP                            4
CPXPARAM_DetTimeLimit                            10000
Tried aggregator 1 time.
MIP Presolve eliminated 595 rows and 0 columns.
MIP Presolve added 1190 rows and 0 columns.
MIP Presolve modified 10 coefficients.
Reduced MIP has 2515 rows, 2985 columns, and 7755 nonzeros.
Reduced MIP has 1195 binaries, 0 generals, 0 SOSs, and 0 indicators.
Presolve time = 0.00 sec. (4.53 ticks)
Probing fixed 0 vars, tightened 5487 bounds.
Probing time = 0.01 sec. (18.38 ticks)
Tried aggregator 2 times.
Detecting symmetries...
MIP Presolve modified 1206 coefficients.
Aggregator did 10 substitutions.
Reduced MIP has 2505 rows, 2975 columns, and 7735 nonzeros.
Reduced MIP has 1195 binaries, 0 generals, 0 SOSs, and 0 indicators.
Presolve time = 0.00 sec. (6.66 ticks)
Probing fixed 0 vars, tightened 2401 bounds.
Probing time = 0.00 sec. (6.41 ticks)
Clique table members: 190.
MIP emphasis: hidden feasible solutions.
MIP search method: dynamic search.
Parallel mode: deterministic, using up to 8 threads.
Root relaxation solution time = 0.01 sec. (9.71 ticks)

        Nodes                                         Cuts/
   Node  Left     Objective  IInf  Best Integer    Best Bound    ItCnt     Gap

      0     0   348385.3466   472                 348385.3466      882         
      0     0   499289.7406   645                   Cuts: 726     1918         
      0     0   642429.8317   684                   Cuts: 726     2843         
*     0+    0                       1.01740e+07   642429.8317            93.69%
*     0+    0                      7973370.0000   642429.8317            91.94%
      0     0   758800.7062   619  7973370.0000     Cuts: 726     3610   90.48%
      0     0   856900.9002   600  7973370.0000     Cuts: 726     4321   89.25%
      0     0   936285.9818   616  7973370.0000     Cuts: 726     4971   88.26%
Detecting symmetries...
      0     0  1037091.5294   635  7973370.0000     Cuts: 726     5717   86.99%
*     0+    0                      2313314.0000  1037091.5294            55.17%
      0     0  1085925.4046   680  2313314.0000     Cuts: 726     6295   53.06%
*     0+    0                      2214406.0000  1085925.4046            50.96%
      0     0  1136755.1498   709  2214406.0000     Cuts: 705     6926   48.67%
*     0+    0                      1941716.0000  1136755.1498            41.46%
      0     0  1177493.8369   711  1941716.0000     Cuts: 726     7551   39.36%
      0     0  1201417.5940   741  1941716.0000     Cuts: 577     8045   38.13%
      0     0  1219323.5040   743  1941716.0000     Cuts: 479     8464   37.20%
      0     0  1232974.2777   755  1941716.0000     Cuts: 359     8877   36.50%
      0     0  1242845.9549   753  1941716.0000     Cuts: 360     9220   35.99%
      0     0  1252186.0425   749  1941716.0000     Cuts: 368     9545   35.51%
      0     0  1258758.4980   777  1941716.0000     Cuts: 319     9848   35.17%
      0     0  1265704.8931   774  1941716.0000     Cuts: 287    10103   34.82%
      0     0  1269625.0263   743  1941716.0000     Cuts: 192    10320   34.61%
      0     0  1272991.6931   743  1941716.0000     Cuts: 240    10553   34.44%
      0     0  1275446.5222   737  1941716.0000     Cuts: 150    10739   34.31%
      0     0  1279325.1570   752  1941716.0000     Cuts: 137    10938   34.11%
      0     0  1282340.9327   742  1941716.0000     Cuts: 180    11114   33.96%
      0     0  1284013.6885   767  1941716.0000     Cuts: 113    11251   33.87%
      0     0  1284654.2614   760  1941716.0000      Cuts: 60    11343   33.84%
      0     0  1285246.9070   769  1941716.0000      Cuts: 40    11411   33.81%
      0     0  1286899.1544   753  1941716.0000      Cuts: 67    11489   33.72%
      0     0  1287623.9495   758  1941716.0000      Cuts: 50    11555   33.69%
      0     0  1288333.5368   757  1941716.0000      Cuts: 40    11604   33.65%
      0     0  1288746.5161   761  1941716.0000      Cuts: 78    11663   33.63%
      0     0  1289457.6121   753  1941716.0000      Cuts: 65    11718   33.59%
      0     0  1290163.2836   759  1941716.0000      Cuts: 60    11794   33.56%
      0     0  1290356.7787   764  1941716.0000      Cuts: 44    11836   33.55%
      0     0  1290633.3286   752  1941716.0000      Cuts: 25    11878   33.53%
*     0+    0                      1893944.0000  1290633.3286            31.85%
Detecting symmetries...
      0     2  1290633.3286   752  1893944.0000  1290633.3286    11878   31.85%
Elapsed time = 5.72 sec. (8891.10 ticks, tree = 0.02 MB, solutions = 6)
     27    25  1300909.9575   722  1893944.0000  1290882.6846    13731   31.84%
     35     7  1297301.2032   741  1893944.0000  1292110.8971    12463   31.78%
     60    56  1321575.2177   688  1893944.0000  1294896.9675    21567   31.63%
    126    99  1327072.6707   668  1893944.0000  1294896.9675    27470   31.63%

Cover cuts applied:  10
Implied bound cuts applied:  24
Mixed integer rounding cuts applied:  1635
Multi commodity flow cuts applied:  50
Lift and project cuts applied:  1
Gomory fractional cuts applied:  13

Root node processing (before b&c):
  Real time             =    5.70 sec. (8884.27 ticks)
Parallel b&c, 8 threads:
  Real time             =    0.68 sec. (1119.08 ticks)
  Sync time (average)   =    0.11 sec.
  Wait time (average)   =    0.00 sec.
                          ------------
Total (root+branch&cut) =    6.39 sec. (10003.35 ticks)
Gap: 31.62%
Upper bound: 1.89394e+06
Lower bound: 1.29503e+06
End of CPLEX run. Time: 6.38787 seconds

===== New CPLEX run =====
Instance: /home/yorig/tuner/mpils-tests/instances/miplib/easy/lotsize.mps
Config: /scratch/yorig/mpils-results-grid-ticks-10000/easy/16proc/seed-9/4_lotsize_seed-9_20260425_202405/iterated_local_search/run_3_worker_10/ils_config_15802320029119366463.prm
========================

Selected objective sense:  MINIMIZE
Selected objective  name:  R1921
Selected RHS        name:  B
Selected bound      name:  BOUND
Version identifier: 22.1.2.0 | 2024-11-26 | 0edbb82fd
CPXPARAM_Threads                                 8
CPXPARAM_Parallel                                1
CPXPARAM_MIP_Strategy_SubAlgorithm               2
CPXPARAM_MIP_Strategy_VariableSelect             1
CPXPARAM_MIP_Cuts_FlowCovers                     1
CPXPARAM_MIP_Cuts_Implied                        1
CPXPARAM_MIP_Cuts_GUBCovers                      -1
CPXPARAM_MIP_Limits_GomoryCand                   400
CPXPARAM_MIP_Cuts_Gomory                         1
CPXPARAM_MIP_Cuts_PathCut                        -1
CPXPARAM_MIP_Cuts_MIRCut                         1
CPXPARAM_MIP_Cuts_Disjunctive                    -1
CPXPARAM_Emphasis_MIP                            4
CPXPARAM_DetTimeLimit                            10000
Tried aggregator 1 time.
MIP Presolve eliminated 595 rows and 0 columns.
MIP Presolve added 1190 rows and 0 columns.
MIP Presolve modified 10 coefficients.
Reduced MIP has 2515 rows, 2985 columns, and 7755 nonzeros.
Reduced MIP has 1195 binaries, 0 generals, 0 SOSs, and 0 indicators.
Presolve time = 0.00 sec. (4.53 ticks)
Probing fixed 0 vars, tightened 5487 bounds.
Probing time = 0.01 sec. (18.38 ticks)
Tried aggregator 2 times.
Detecting symmetries...
MIP Presolve modified 1206 coefficients.
Aggregator did 10 substitutions.
Reduced MIP has 2505 rows, 2975 columns, and 7735 nonzeros.
Reduced MIP has 1195 binaries, 0 generals, 0 SOSs, and 0 indicators.
Presolve time = 0.00 sec. (6.66 ticks)
Probing fixed 0 vars, tightened 2401 bounds.
Probing time = 0.00 sec. (6.41 ticks)
Clique table members: 190.
MIP emphasis: hidden feasible solutions.
MIP search method: dynamic search.
Parallel mode: deterministic, using up to 8 threads.
Root relaxation solution time = 0.01 sec. (9.71 ticks)

        Nodes                                         Cuts/
   Node  Left     Objective  IInf  Best Integer    Best Bound    ItCnt     Gap

      0     0   348385.3466   472                 348385.3466      882         
      0     0   497593.6944   617                   Cuts: 726     1927         
      0     0   710998.1031   620                   Cuts: 726     2890         
*     0+    0                       1.01740e+07   710998.1031            93.01%
*     0+    0                      7973370.0000   710998.1031            91.08%
      0     0   896209.7418   655  7973370.0000     Cuts: 726     3780   88.76%
      0     0  1005285.7946   608  7973370.0000     Cuts: 726     4491   87.39%
      0     0  1066281.2694   663  7973370.0000     Cuts: 726     5131   86.63%
Detecting symmetries...
      0     0  1119191.9627   665  7973370.0000     Cuts: 717     5732   85.96%
*     0+    0                      2214406.0000  1119191.9627            49.46%
      0     0  1157590.0486   657  2214406.0000     Cuts: 576     6238   47.72%
*     0+    0                      1941716.0000  1157590.0486            40.38%
      0     0  1182835.7969   695  1941716.0000     Cuts: 592     6774   39.08%
      0     0  1225451.3847   705  1941716.0000     Cuts: 610     7426   36.89%
      0     0  1245205.1521   753  1941716.0000     Cuts: 568     7903   35.87%
      0     0  1255273.1659   758  1941716.0000     Cuts: 373     8253   35.35%
      0     0  1262931.4340   760  1941716.0000     Cuts: 379     8584   34.96%
      0     0  1271367.6118   775  1941716.0000     Cuts: 340     8850   34.52%
      0     0  1276429.4738   785  1941716.0000     Cuts: 287     9109   34.26%
      0     0  1282045.0664   803  1941716.0000     Cuts: 260     9323   33.97%
      0     0  1284442.9036   800  1941716.0000     Cuts: 218     9499   33.85%
      0     0  1287089.1351   786  1941716.0000     Cuts: 195     9677   33.71%
      0     0  1290535.2595   784  1941716.0000     Cuts: 176     9867   33.54%
      0     0  1292671.7257   811  1941716.0000     Cuts: 185    10048   33.43%
      0     0  1295094.9379   812  1941716.0000     Cuts: 211    10203   33.30%
      0     0  1296474.1199   823  1941716.0000     Cuts: 148    10321   33.23%
      0     0  1299081.7392   821  1941716.0000     Cuts: 116    10451   33.10%
      0     0  1300371.6207   828  1941716.0000     Cuts: 173    10591   33.03%
      0     0  1301299.2207   808  1941716.0000     Cuts: 113    10700   32.98%
      0     0  1302196.6561   830  1941716.0000     Cuts: 114    10799   32.94%
      0     0  1302895.9841   838  1941716.0000     Cuts: 137    10896   32.90%
      0     0  1303828.0963   843  1941716.0000     Cuts: 134    10997   32.85%
      0     0  1304805.9986   845  1941716.0000     Cuts: 102    11089   32.80%
      0     0  1305068.9527   836  1941716.0000      Cuts: 68    11137   32.79%
      0     0  1305299.2694   840  1941716.0000      Cuts: 59    11197   32.78%
*     0+    0                      1894709.0000  1305299.2694            31.11%
*     0+    0                      1889471.0000  1305299.2694            30.92%
Detecting symmetries...
      0     2  1305299.2694   840  1889471.0000  1305299.2694    11197   30.92%
Elapsed time = 5.51 sec. (8897.44 ticks, tree = 0.02 MB, solutions = 6)
     11     7  1308753.4196   805  1889471.0000  1305329.3542    11509   30.92%
     24    25  1321061.8423   816  1889471.0000  1305972.4799    15845   30.88%
     66    48  1323584.0555   805  1889471.0000  1305972.4799    20290   30.88%
     83    63  1324792.4293   767  1889471.0000  1305972.4799    24635   30.88%

Cover cuts applied:  12
Implied bound cuts applied:  20
Flow cuts applied:  506
Mixed integer rounding cuts applied:  1182
Multi commodity flow cuts applied:  48
Gomory fractional cuts applied:  7

Root node processing (before b&c):
  Real time             =    5.50 sec. (8889.92 ticks)
Parallel b&c, 8 threads:
  Real time             =    0.61 sec. (1115.01 ticks)
  Sync time (average)   =    0.07 sec.
  Wait time (average)   =    0.00 sec.
                          ------------
Total (root+branch&cut) =    6.11 sec. (10004.93 ticks)
Gap: 30.88%
Upper bound: 1.88947e+06
Lower bound: 1.30597e+06
End of CPLEX run. Time: 6.10922 seconds
